knapPI_9_1000_1000_199
n 1000
c 342683
z 290247
time 2.1
1,781,1001,1
2,462,1000,1
3,9,1001,1
4,607,1001,1
5,84,1000,1
6,25,1000,1
7,168,1001,1
8,128,1000,1
9,825,1000,1
10,419,1001,1
11,109,1000,1
12,96,1001,1
13,754,1000,1
14,734,1001,1
15,709,1001,1
16,192,1001,1
17,508,1001,1
18,965,1001,1
19,101,1000,1
20,46,1000,1
21,995,1000,1
22,839,1000,1
23,262,1000,1
24,529,1000,1
25,834,1001,1
26,760,1000,1
27,369,1000,1
28,100,1001,1
29,67,1001,1
30,660,1000,1
31,768,1001,1
32,333,1001,1
33,590,1000,1
34,104,1001,1
35,596,1000,1
36,56,1001,1
37,741,1001,1
38,250,1001,1
39,333,1001,1
40,907,1000,1
41,451,1001,1
42,197,1001,1
43,69,1000,1
44,953,1000,1
45,660,1001,1
46,800,1001,1
47,618,1001,1
48,620,1001,1
49,954,1000,1
50,800,1000,1
51,950,1000,1
52,894,1001,1
53,590,1000,1
54,559,1000,1
55,584,1001,1
56,986,1000,1
57,672,1000,1
58,92,1001,1
59,184,1000,1
60,242,1001,1
61,975,1000,1
62,799,1000,1
63,768,1000,1
64,589,1001,1
65,200,1000,1
66,694,1001,1
67,324,1000,1
68,81,1000,1
69,67,1001,1
70,522,1001,1
71,746,1000,1
72,762,1001,1
73,609,1001,1
74,452,1000,1
75,748,1001,1
76,640,1001,1
77,998,1001,1
78,380,1000,1
79,646,1000,1
80,207,1000,1
81,91,1001,1
82,630,1000,1
83,513,1000,1
84,389,1001,1
85,223,1001,1
86,513,1001,1
87,435,1001,1
88,573,1000,1
89,988,1000,1
90,727,1001,1
91,286,1000,1
92,753,1001,1
93,745,1000,1
94,56,1001,1
95,214,1001,1
96,476,1001,1
97,907,1000,1
98,812,1000,1
99,922,1001,1
100,232,1001,1
101,531,1001,1
102,552,1000,1
103,649,1001,1
104,624,1001,1
105,533,1000,1
106,413,1001,1
107,4,1000,1
108,776,1001,1
109,128,1000,1
110,975,1001,1
111,557,1000,1
112,790,1001,1
113,774,1001,1
114,732,1001,1
115,851,1000,1
116,418,1000,1
117,197,1001,1
118,320,1001,1
119,913,1000,1
120,120,1001,1
121,357,1000,1
122,847,1000,1
123,348,1001,1
124,249,1000,1
125,510,1001,1
126,272,1001,1
127,98,1000,1
128,203,1000,1
129,965,1000,1
130,693,1000,1
131,914,1001,1
132,372,1000,1
133,271,1001,1
134,601,1000,1
135,218,1000,1
136,623,1001,1
137,553,1001,1
138,743,1000,1
139,119,1001,1
140,54,1000,1
141,346,1000,1
142,670,1001,1
143,913,1001,1
144,725,1000,1
145,921,1001,1
146,922,1000,1
147,394,1001,1
148,552,1001,1
149,600,1001,1
150,654,1001,1
151,137,1001,1
152,980,1001,1
153,977,1001,1
154,811,1001,1
155,832,1000,1
156,928,1001,1
157,229,1000,1
158,980,1001,1
159,916,1001,1
160,741,1000,1
161,131,1000,1
162,847,1000,1
163,487,1000,1
164,706,1001,1
165,598,1001,1
166,266,1000,1
167,101,1000,1
168,427,1001,1
169,302,1000,1
170,606,1001,1
171,729,1000,1
172,389,1000,1
173,771,1000,1
174,504,1001,1
175,108,1001,1
176,399,1001,1
177,597,1001,1
178,912,1000,1
179,959,1001,1
180,897,1000,1
181,898,1001,1
182,118,1001,1
183,369,1000,1
184,735,1000,1
185,883,1001,1
186,429,1000,1
187,780,1000,1
188,794,1001,1
189,344,1001,1
190,861,1000,1
191,74,1000,1
192,10,1001,1
193,283,1000,1
194,986,1001,1
195,660,1000,1
196,384,1001,1
197,327,1001,1
198,518,1000,1
199,193,1000,1
200,789,1001,1
201,123,1000,1
202,641,1001,1
203,305,1001,1
204,816,1001,1
205,666,1001,1
206,867,1001,1
207,353,1001,1
208,301,1000,1
209,64,1000,1
210,187,1000,1
211,444,1000,1
212,463,1001,1
213,471,1000,1
214,932,1000,1
215,414,1001,1
216,277,1001,1
217,622,1001,1
218,244,1000,1
219,125,1001,1
220,198,1001,1
221,290,1001,1
222,290,1001,1
223,121,1000,1
224,966,1001,1
225,366,1001,1
226,406,1000,1
227,583,1001,1
228,652,1001,1
229,347,1000,1
230,417,1000,1
231,111,1000,1
232,514,1000,1
233,233,1001,1
234,297,1000,1
235,943,1001,1
236,569,1000,1
237,392,1001,1
238,58,1000,1
239,396,1000,1
240,321,1001,1
241,172,1001,1
242,883,1001,1
243,860,1000,1
244,56,1000,1
245,396,1000,1
246,901,1001,1
247,606,1000,1
248,507,1000,1
249,74,1001,1
250,287,1000,1
251,295,1000,1
252,856,1001,1
253,50,1000,1
254,806,1000,1
255,402,1001,1
256,986,1001,1
257,716,1000,1
258,783,1000,1
259,248,1000,1
260,998,1001,1
261,138,1000,1
262,510,1000,1
263,289,1001,1
264,907,1001,1
265,185,1000,1
266,230,1000,1
267,268,1001,1
268,676,1001,1
269,865,1000,1
270,712,1001,1
271,622,1001,1
272,566,1001,1
273,665,1000,1
274,320,1000,1
275,955,1000,1
276,99,1000,1
277,845,1001,1
278,128,1000,1
279,947,1001,1
280,412,1000,1
281,557,1001,1
282,935,1001,1
283,179,1000,1
284,700,1000,1
285,982,1001,1
286,497,1001,1
287,892,1001,1
288,603,1000,1
289,769,1001,1
290,424,1001,1
291,653,1001,1
292,395,1000,1
293,583,1001,1
294,557,1001,1
295,160,1000,1
296,112,1001,1
297,325,1000,1
298,606,1001,1
299,346,1000,1
300,80,1000,1
301,922,1000,1
302,196,1001,1
303,474,1000,1
304,165,1001,1
305,142,1001,1
306,778,1000,1
307,61,1001,1
308,277,1000,1
309,758,1000,1
310,380,1000,1
311,492,1001,1
312,809,1000,1
313,107,1001,1
314,971,1000,1
315,519,1001,1
316,638,1000,1
317,635,1000,1
318,265,1000,1
319,87,1001,1
320,798,1000,1
321,273,1000,1
322,445,1000,1
323,667,1001,1
324,152,1001,1
325,52,1000,1
326,397,1000,1
327,7,1001,1
328,664,1000,1
329,437,1001,1
330,10,1000,1
331,779,1001,1
332,922,1000,1
333,55,1000,1
334,600,1000,1
335,4,1000,1
336,555,1001,1
337,519,1001,1
338,434,1000,1
339,796,1001,1
340,355,1000,1
341,939,1001,1
342,788,1000,1
343,613,1001,1
344,983,1001,1
345,554,1001,1
346,216,1000,1
347,261,1000,1
348,731,1001,1
349,108,1000,1
350,873,1001,1
351,121,1000,1
352,157,1000,1
353,794,1000,1
354,449,1001,1
355,523,1000,1
356,38,1001,1
357,734,1000,1
358,182,1001,1
359,314,1000,1
360,441,1000,1
361,185,1001,1
362,957,1000,1
363,166,1000,1
364,777,1000,1
365,582,1001,1
366,40,1000,1
367,289,1000,1
368,657,1000,1
369,589,1001,1
370,226,1000,1
371,314,1001,1
372,163,1001,1
373,227,1000,1
374,192,1000,1
375,263,1000,1
376,619,1000,1
377,319,1001,1
378,221,1000,1
379,55,1001,1
380,806,1000,1
381,814,1000,1
382,20,1001,1
383,531,1000,1
384,551,1001,1
385,736,1000,1
386,896,1001,1
387,490,1001,1
388,939,1001,1
389,612,1000,1
390,685,1000,1
391,651,1001,1
392,946,1001,1
393,111,1001,1
394,530,1000,1
395,887,1000,1
396,769,1000,1
397,768,1001,1
398,3,1000,1
399,420,1000,1
400,868,1001,1
401,965,1000,1
402,529,1000,1
403,218,1001,1
404,989,1001,1
405,824,1001,1
406,422,1000,1
407,883,1000,1
408,600,1001,1
409,474,1000,1
410,874,1000,1
411,846,1001,1
412,889,1000,1
413,975,1001,1
414,416,1000,1
415,56,1000,1
416,69,1000,1
417,411,1001,1
418,903,1000,1
419,145,1001,1
420,146,1001,1
421,184,1000,1
422,764,1000,1
423,297,1000,1
424,73,1000,1
425,528,1000,1
426,709,1001,1
427,117,1000,1
428,425,1001,1
429,1000,1000,1
430,133,1001,1
431,595,1000,1
432,973,1001,1
433,791,1001,1
434,498,1000,1
435,891,1000,1
436,372,1000,1
437,990,1000,1
438,800,1000,1
439,860,1000,1
440,368,1001,1
441,654,1000,1
442,931,1001,1
443,82,1000,1
444,522,1000,1
445,295,1000,1
446,292,1001,1
447,31,1000,1
448,992,1001,1
449,797,1001,1
450,907,1001,1
451,938,1001,1
452,88,1000,1
453,975,1000,1
454,636,1000,1
455,217,1000,1
456,88,1000,1
457,363,1001,1
458,285,1000,1
459,529,1000,1
460,53,1000,1
461,876,1000,1
462,855,1001,1
463,62,1001,1
464,785,1001,1
465,888,1000,1
466,308,1001,1
467,215,1000,1
468,126,1001,1
469,420,1001,1
470,951,1000,1
471,254,1000,1
472,799,1000,1
473,698,1001,1
474,769,1000,1
475,774,1000,1
476,164,1000,1
477,531,1001,1
478,502,1000,1
479,273,1001,1
480,281,1000,1
481,882,1000,1
482,38,1000,1
483,139,1001,1
484,266,1001,1
485,408,1001,1
486,896,1001,1
487,94,1001,1
488,676,1001,1
489,780,1000,1
490,863,1000,1
491,78,1001,1
492,953,1000,1
493,949,1001,1
494,148,1001,1
495,336,1000,1
496,371,1001,1
497,289,1001,1
498,783,1000,1
499,189,1001,1
500,262,1001,1
501,302,1000,1
502,44,1000,1
503,23,1000,1
504,31,1000,1
505,559,1000,1
506,65,1000,1
507,967,1000,1
508,293,1000,1
509,987,1001,1
510,538,1000,1
511,928,1001,1
512,795,1000,1
513,795,1000,1
514,100,1000,1
515,180,1001,1
516,729,1000,1
517,878,1000,1
518,214,1000,1
519,129,1001,1
520,800,1001,1
521,327,1001,1
522,275,1000,1
523,957,1001,1
524,680,1001,1
525,507,1001,1
526,958,1001,1
527,855,1001,1
528,650,1001,1
529,932,1000,1
530,230,1000,1
531,691,1000,1
532,308,1000,1
533,651,1001,1
534,327,1000,1
535,284,1001,1
536,820,1001,1
537,801,1001,1
538,503,1000,1
539,787,1001,1
540,314,1000,1
541,602,1000,1
542,779,1000,1
543,361,1000,1
544,283,1000,1
545,59,1001,1
546,295,1000,1
547,177,1001,1
548,945,1001,1
549,91,1001,1
550,927,1000,1
551,179,1001,1
552,790,1000,1
553,132,1000,1
554,873,1001,1
555,166,1000,1
556,603,1001,1
557,373,1000,1
558,734,1001,1
559,642,1001,1
560,166,1001,1
561,893,1000,1
562,908,1001,1
563,278,1000,1
564,590,1000,1
565,368,1001,1
566,341,1000,1
567,169,1000,1
568,826,1000,1
569,837,1001,1
570,395,1000,1
571,197,1001,1
572,317,1001,1
573,81,1001,1
574,816,1001,1
575,406,1001,1
576,980,1000,1
577,665,1001,1
578,235,1001,1
579,835,1001,1
580,709,1001,1
581,912,1001,1
582,729,1000,1
583,660,1001,1
584,405,1001,1
585,357,1001,1
586,304,1000,1
587,310,1000,1
588,862,1001,1
589,728,1001,1
590,583,1001,1
591,152,1000,1
592,392,1000,1
593,258,1000,1
594,596,1000,1
595,782,1001,1
596,249,1000,1
597,301,1001,1
598,640,1000,1
599,431,1000,1
600,516,1001,1
601,953,1000,1
602,248,1000,1
603,519,1001,1
604,94,1001,1
605,660,1000,1
606,289,1000,1
607,265,1000,1
608,566,1000,1
609,348,1000,1
610,997,1000,1
611,929,1000,1
612,700,1001,1
613,29,1000,1
614,67,1001,1
615,923,1001,1
616,738,1000,1
617,360,1000,1
618,838,1000,1
619,736,1001,1
620,28,1001,1
621,894,1001,1
622,831,1000,1
623,937,1000,1
624,590,1000,1
625,679,1000,1
626,723,1001,1
627,727,1001,1
628,942,1000,1
629,781,1000,1
630,946,1000,1
631,521,1001,1
632,684,1001,1
633,249,1001,1
634,252,1001,1
635,873,1001,1
636,544,1001,1
637,441,1000,1
638,646,1001,1
639,797,1001,1
640,788,1000,1
641,666,1000,1
642,969,1000,1
643,534,1000,1
644,944,1001,1
645,482,1001,1
646,760,1000,1
647,8,1000,1
648,40,1001,1
649,365,1000,1
650,821,1000,1
651,125,1000,1
652,760,1000,1
653,386,1001,1
654,911,1001,1
655,239,1001,1
656,343,1000,1
657,219,1000,1
658,526,1001,1
659,7,1001,1
660,31,1000,1
661,114,1000,1
662,982,1000,1
663,441,1000,1
664,665,1000,1
665,839,1001,1
666,428,1001,1
667,316,1001,1
668,867,1001,1
669,890,1000,1
670,713,1000,1
671,965,1000,1
672,975,1001,1
673,279,1001,1
674,627,1000,1
675,301,1000,1
676,573,1001,1
677,165,1001,1
678,268,1000,1
679,887,1000,1
680,92,1000,1
681,722,1000,1
682,1000,1001,1
683,927,1001,1
684,422,1001,1
685,299,1001,1
686,171,1000,1
687,926,1001,1
688,542,1000,1
689,498,1001,1
690,282,1001,1
691,368,1001,1
692,913,1001,1
693,263,1001,1
694,989,1001,1
695,93,1000,1
696,498,1001,1
697,170,1001,1
698,833,1000,1
699,634,1000,1
700,65,1000,1
701,645,1000,1
702,412,1001,1
703,960,1001,1
704,743,1001,1
705,255,1000,1
706,128,1000,1
707,882,1000,1
708,629,1001,1
709,92,1000,1
710,532,1000,1
711,977,1001,1
712,502,1000,1
713,294,1000,1
714,773,1001,1
715,762,1001,1
716,549,1001,1
717,525,1000,1
718,468,1000,1
719,938,1000,1
720,570,1000,1
721,351,1001,1
722,631,1000,1
723,659,1000,1
724,7,1001,1
725,69,1001,1
726,403,1001,1
727,641,1001,1
728,573,1001,1
729,47,1001,1
730,433,1001,1
731,466,1001,1
732,103,1001,1
733,468,1001,1
734,402,1000,1
735,826,1000,1
736,433,1000,1
737,259,1001,1
738,85,1000,1
739,134,1001,1
740,190,1000,1
741,887,1000,1
742,878,1000,1
743,673,1001,1
744,681,1001,1
745,922,1001,1
746,892,1000,1
747,54,1001,1
748,413,1001,1
749,306,1001,1
750,211,1001,1
751,917,1001,1
752,801,1000,1
753,616,1000,1
754,930,1001,1
755,517,1000,1
756,395,1000,1
757,22,1000,1
758,247,1000,1
759,975,1000,1
760,948,1000,1
761,824,1000,1
762,604,1001,1
763,556,1001,1
764,175,1001,1
765,501,1001,1
766,372,1001,1
767,480,1000,1
768,440,1001,1
769,731,1000,1
770,732,1001,1
771,153,1000,1
772,350,1000,1
773,57,1000,1
774,16,1001,1
775,920,1001,1
776,665,1000,1
777,400,1001,1
778,588,1001,1
779,945,1001,1
780,277,1001,1
781,232,1000,1
782,565,1000,1
783,866,1000,1
784,720,1000,1
785,811,1001,1
786,133,1000,1
787,356,1000,1
788,847,1001,1
789,180,1001,1
790,224,1000,1
791,266,1000,1
792,246,1001,1
793,577,1001,1
794,103,1001,1
795,804,1001,1
796,794,1001,1
797,838,1000,1
798,52,1000,1
799,808,1000,1
800,163,1001,1
801,701,1000,1
802,795,1000,1
803,786,1001,1
804,343,1000,1
805,2,1001,1
806,187,1000,1
807,891,1001,1
808,724,1000,1
809,785,1000,1
810,877,1001,1
811,53,1001,1
812,143,1001,1
813,315,1001,1
814,543,1001,1
815,422,1000,1
816,352,1001,1
817,140,1001,1
818,23,1000,1
819,604,1000,1
820,117,1001,1
821,601,1001,1
822,167,1000,1
823,480,1001,1
824,994,1001,1
825,255,1000,1
826,61,1001,1
827,159,1001,1
828,799,1001,1
829,985,1001,1
830,572,1000,1
831,575,1001,1
832,480,1000,1
833,514,1001,1
834,246,1001,1
835,952,1000,1
836,497,1001,1
837,330,1001,1
838,758,1001,1
839,933,1000,1
840,34,1001,1
841,103,1000,1
842,226,1001,1
843,216,1000,1
844,539,1001,1
845,874,1001,1
846,406,1000,1
847,922,1001,1
848,202,1001,1
849,595,1001,1
850,403,1001,1
851,898,1001,1
852,925,1000,1
853,328,1001,1
854,399,1000,1
855,867,1001,1
856,535,1000,1
857,114,1001,1
858,648,1000,1
859,680,1001,1
860,771,1000,1
861,912,1001,1
862,650,1000,1
863,185,1000,1
864,240,1000,1
865,750,1000,1
866,142,1001,1
867,58,1000,1
868,187,1001,1
869,53,1000,1
870,688,1000,1
871,186,1000,1
872,573,1000,1
873,5,1001,1
874,96,1001,1
875,255,1001,1
876,400,1000,1
877,269,1001,1
878,699,1001,1
879,821,1000,1
880,229,1001,1
881,687,1001,1
882,948,1001,1
883,614,1001,1
884,716,1001,1
885,359,1000,1
886,74,1000,1
887,784,1000,1
888,6,1001,1
889,513,1000,1
890,457,1001,1
891,407,1000,1
892,897,1001,1
893,347,1000,1
894,402,1001,1
895,702,1001,1
896,355,1001,1
897,725,1000,1
898,634,1000,1
899,687,1000,1
900,825,1001,1
901,605,1000,1
902,998,1000,1
903,674,1000,1
904,778,1000,1
905,934,1001,1
906,202,1001,1
907,380,1000,1
908,428,1001,1
909,339,1000,1
910,196,1000,1
911,857,1000,1
912,612,1001,1
913,226,1001,1
914,987,1000,1
915,661,1000,1
916,135,1001,1
917,776,1001,1
918,760,1001,1
919,650,1001,1
920,631,1001,1
921,815,1000,1
922,534,1000,1
923,421,1001,1
924,181,1000,1
925,53,1000,1
926,447,1000,1
927,594,1001,1
928,845,1001,1
929,765,1000,1
930,923,1001,1
931,577,1000,1
932,465,1001,1
933,785,1001,1
934,899,1001,1
935,585,1001,1
936,720,1000,1
937,97,1000,1
938,266,1000,1
939,443,1001,1
940,501,1001,1
941,698,1001,1
942,539,1001,1
943,958,1001,1
944,433,1000,1
945,755,1000,1
946,153,1001,1
947,536,1001,1
948,707,1000,1
949,979,1000,1
950,676,1001,1
951,477,1001,1
952,580,1001,1
953,533,1000,1
954,801,1000,1
955,956,1001,1
956,173,1001,1
957,702,1000,1
958,241,1001,1
959,561,1000,1
960,895,1000,1
961,818,1000,1
962,725,1001,1
963,413,1000,1
964,250,1001,1
965,982,1000,1
966,536,1001,1
967,173,1001,1
968,195,1001,1
969,764,1001,1
970,197,1000,1
971,45,1001,1
972,436,1000,1
973,786,1000,1
974,965,1000,1
975,309,1001,1
976,271,1000,1
977,217,1001,1
978,678,1000,1
979,766,1000,1
980,704,1000,1
981,646,1001,1
982,3,1000,1
983,955,1001,1
984,317,1001,1
985,163,1001,1
986,646,1000,1
987,741,1000,1
988,528,1001,1
989,152,1001,1
990,87,1000,1
991,685,1000,1
992,960,1001,1
993,323,1001,1
994,45,1001,1
995,712,1000,1
996,634,1001,1
997,587,1000,1
998,531,1000,1
999,412,1000,1
1000,190,1000,1
